nN = 10;
nR = 50;
nH = 2;

a = [[12, 13, 24, 19, 24, 24, 15, 13, 11, 20, 11, 11, 23, 20, 20, 10, 16, 14, 16, 24, 22, 22, 20, 12, 22, 14, 15, 23, 24, 24, 13, 10, 23, 23, 24, 23, 15, 24, 11, 22, 11, 16, 17, 23, 24, 15, 19, 20, 12, 25], [19, 20, 16, 18, 20, 13, 17, 22, 13, 24, 17, 22, 24, 20, 19, 18, 11, 18, 18, 16, 12, 11, 23, 17, 10, 13, 14, 12, 21, 24, 18, 24, 16, 20, 12, 13, 20, 19, 23, 16, 24, 13, 25, 12, 21, 19, 10, 22, 18, 23], [15, 23, 20, 16, 18, 19, 23, 17, 14, 16, 24, 19, 20, 23, 22, 24, 19, 19, 24, 11, 19, 23, 15, 15, 10, 12, 11, 17, 11, 22, 21, 23, 10, 19, 18, 25, 21, 22, 16, 25, 18, 16, 11, 11, 14, 11, 15, 23, 18, 11], [14, 20, 14, 21, 19, 22, 18, 10, 23, 16, 23, 22, 17, 15, 12, 16, 13, 21, 18, 23, 22, 20, 18, 16, 20, 15, 16, 19, 13, 22, 22, 20, 11, 19, 25, 12, 21, 23, 18, 16, 21, 19, 17, 16, 25, 12, 14, 20, 12, 13], [20, 24, 17, 14, 13, 25, 20, 15, 22, 12, 16, 12, 20, 10, 17, 21, 14, 13, 16, 13, 22, 16, 21, 19, 16, 12, 19, 13, 25, 13, 19, 16, 25, 11, 13, 25, 11, 22, 15, 11, 13, 17, 23, 13, 16, 12, 18, 13, 21, 22], [24, 14, 20, 11, 17, 13, 20, 14, 22, 12, 22, 14, 16, 10, 22, 11, 23, 22, 18, 14, 19, 20, 20, 25, 16, 18, 11, 19, 18, 14, 10, 11, 11, 11, 25, 23, 18, 15, 18, 15, 18, 12, 11, 19, 15, 20, 17, 24, 20, 11], [14, 21, 19, 23, 21, 15, 19, 17, 23, 17, 15, 11, 15, 14, 14, 16, 21, 19, 15, 23, 15, 24, 16, 25, 11, 16, 13, 13, 25, 16, 24, 16, 18, 15, 17, 16, 22, 23, 16, 17, 12, 14, 12, 15, 17, 14, 21, 23, 20, 21], [21, 22, 23, 23, 14, 21, 11, 24, 18, 23, 24, 13, 24, 21, 12, 12, 18, 22, 25, 12, 24, 24, 18, 21, 19, 22, 20, 23, 12, 20, 24, 24, 12, 11, 15, 19, 17, 14, 17, 22, 15, 24, 16, 23, 11, 21, 24, 25, 23, 23], [22, 24, 14, 16, 22, 21, 18, 25, 20, 17, 19, 11, 21, 19, 24, 13, 22, 15, 18, 25, 21, 17, 18, 25, 19, 17, 20, 10, 11, 20, 24, 11, 15, 25, 18, 24, 14, 25, 25, 23, 14, 12, 12, 21, 16, 23, 16, 24, 12, 13], [16, 11, 12, 20, 22, 16, 25, 17, 17, 25, 24, 15, 19, 24, 16, 17, 10, 24, 16, 13, 20, 16, 23, 20, 11, 22, 22, 19, 21, 14, 17, 11, 11, 23, 11, 17, 23, 15, 16, 13, 14, 15, 20, 20, 20, 10, 23, 25, 24, 18]];
c = [[[0, 0, 0, 0, 0, 0, 0, 0, 0, 0, 0, 0, 0, 0, 0, 0, 0, 0, 0, 0, 0, 0, 0, 0, 0, 0, 0, 0, 0, 0, 0, 0, 0, 0, 0, 0, 0, 0, 0, 0, 0, 0, 0, 0, 0, 0, 0, 0, 0, 0], [50, 38, 44, 47, 38, 35, 42, 41, 39, 37, 41, 35, 44, 36, 43, 50, 39, 35, 41, 39, 49, 36, 36, 46, 30, 31, 32, 36, 42, 48, 42, 49, 43, 45, 40, 39, 41, 33, 43, 35, 49, 39, 39, 38, 43, 35, 33, 38, 40, 31], [45, 32, 50, 50, 33, 48, 30, 45, 38, 42, 50, 31, 40, 49, 48, 48, 44, 41, 37, 43, 47, 38, 43, 31, 43, 30, 36, 40, 49, 37, 48, 34, 39, 38, 43, 50, 39, 36, 48, 34, 37, 49, 45, 40, 37, 31, 36, 47, 41, 49], [42, 43, 30, 33, 47, 50, 44, 48, 43, 30, 34, 34, 50, 47, 43, 35, 38, 33, 45, 40, 36, 34, 35, 34, 45, 35, 36, 38, 46, 45, 31, 32, 45, 35, 36, 48, 48, 41, 50, 44, 35, 36, 48, 49, 49, 30, 42, 35, 39, 32], [40, 44, 41, 38, 46, 50, 34, 33, 32, 41, 32, 30, 31, 33, 44, 40, 43, 48, 31, 49, 34, 35, 49, 47, 38, 40, 33, 30, 31, 40, 34, 32, 40, 48, 30, 38, 38, 34, 40, 31, 41, 48, 48, 33, 32, 44, 34, 46, 43, 42], [39, 31, 33, 49, 31, 45, 46, 50, 47, 33, 47, 49, 30, 43, 43, 42, 48, 32, 34, 41, 44, 35, 36, 35, 47, 39, 33, 46, 43, 35, 45, 41, 32, 44, 31, 48, 49, 38, 30, 39, 31, 38, 31, 34, 34, 42, 43, 39, 40, 40], [32, 34, 47, 32, 31, 32, 32, 31, 47, 35, 30, 49, 48, 50, 43, 41, 48, 30, 41, 48, 32, 34, 44, 37, 48, 35, 44, 41, 43, 48, 32, 31, 30, 50, 42, 30, 38, 31, 34, 39, 43, 40, 39, 35, 45, 50, 31, 32, 33, 31], [39, 34, 40, 33, 34, 42, 39, 33, 37, 32, 30, 33, 39, 32, 38, 41, 43, 38, 45, 47, 35, 33, 49, 50, 38, 33, 47, 46, 35, 39, 47, 42, 36, 32, 50, 39, 43, 47, 34, 47, 45, 44, 50, 33, 43, 50, 38, 32, 42, 38], [37, 41, 46, 47, 35, 42, 31, 47, 47, 44, 44, 38, 36, 32, 37, 48, 35, 44, 47, 42, 41, 35, 38, 43, 44, 46, 33, 35, 39, 46, 47, 41, 48, 39, 38, 37, 40, 30, 40, 30, 42, 40, 37, 32, 45, 43, 48, 36, 38, 44], [39, 41, 45, 38, 43, 41, 45, 41, 32, 43, 39, 35, 46, 44, 38, 33, 36, 48, 34, 39, 37, 49, 50, 48, 43, 44, 30, 46, 37, 45, 37, 35, 46, 38, 32, 34, 49, 46, 47, 31, 47, 46, 42, 33, 36, 46, 37, 40, 49, 32]], [[0, 0, 0, 0, 0, 0, 0, 0, 0, 0, 0, 0, 0, 0, 0, 0, 0, 0, 0, 0, 0, 0, 0, 0, 0, 0, 0, 0, 0, 0, 0, 0, 0, 0, 0, 0, 0, 0, 0, 0, 0, 0, 0, 0, 0, 0, 0, 0, 0, 0], [0, 0, 0, 0, 0, 0, 0, 0, 0, 0, 0, 0, 0, 0, 0, 0, 0, 0, 0, 0, 0, 0, 0, 0, 0, 0, 0, 0, 0, 0, 0, 0, 0, 0, 0, 0, 0, 0, 0, 0, 0, 0, 0, 0, 0, 0, 0, 0, 0, 0], [37, 35, 46, 46, 44, 50, 30, 43, 46, 37, 43, 34, 50, 44, 50, 41, 48, 47, 38, 32, 47, 50, 33, 41, 49, 33, 48, 49, 42, 50, 49, 39, 40, 31, 37, 44, 41, 48, 30, 44, 33, 45, 48, 45, 37, 36, 42, 38, 30, 50], [47, 48, 30, 48, 47, 37, 35, 34, 31, 39, 46, 40, 34, 46, 41, 49, 32, 40, 39, 43, 37, 34, 41, 40, 43, 34, 33, 46, 41, 42, 35, 43, 36, 50, 31, 48, 39, 37, 32, 32, 44, 37, 34, 41, 35, 40, 44, 34, 43, 40], [46, 44, 33, 34, 40, 50, 42, 30, 32, 37, 31, 37, 43, 48, 40, 41, 44, 31, 48, 48, 39, 35, 36, 30, 31, 38, 43, 43, 39, 49, 43, 39, 46, 39, 45, 42, 45, 34, 45, 45, 47, 41, 34, 38, 46, 30, 34, 44, 42, 33], [30, 49, 47, 31, 49, 39, 44, 46, 33, 41, 48, 43, 42, 44, 44, 47, 43, 47, 36, 36, 36, 33, 31, 34, 31, 42, 47, 33, 30, 31, 35, 48, 30, 34, 34, 38, 30, 34, 38, 45, 43, 43, 36, 50, 39, 36, 46, 39, 50, 35], [47, 50, 46, 49, 47, 37, 44, 30, 37, 34, 32, 33, 34, 42, 33, 46, 43, 39, 40, 46, 37, 33, 46, 40, 45, 47, 36, 40, 49, 50, 42, 39, 46, 48, 47, 36, 38, 42, 44, 37, 34, 33, 31, 37, 34, 43, 30, 31, 32, 50], [38, 44, 44, 43, 34, 43, 30, 38, 32, 50, 50, 31, 45, 45, 39, 47, 36, 34, 37, 34, 41, 50, 40, 46, 39, 37, 33, 47, 50, 32, 32, 33, 42, 46, 44, 46, 46, 43, 42, 36, 30, 41, 47, 39, 40, 41, 46, 36, 32, 49], [41, 31, 39, 47, 43, 39, 49, 33, 45, 44, 34, 49, 43, 40, 48, 37, 50, 31, 32, 39, 34, 38, 38, 31, 38, 34, 32, 30, 35, 35, 50, 38, 48, 41, 37, 45, 38, 48, 32, 40, 36, 45, 43, 40, 32, 38, 49, 45, 39, 36], [35, 41, 46, 42, 40, 43, 46, 33, 49, 44, 47, 48, 40, 35, 50, 49, 38, 46, 37, 38, 43, 46, 48, 33, 44, 40, 45, 36, 40, 32, 35, 34, 49, 43, 40, 47, 37, 37, 38, 38, 48, 30, 40, 41, 43, 37, 30, 48, 36, 47]], [[0, 0, 0, 0, 0, 0, 0, 0, 0, 0, 0, 0, 0, 0, 0, 0, 0, 0, 0, 0, 0, 0, 0, 0, 0, 0, 0, 0, 0, 0, 0, 0, 0, 0, 0, 0, 0, 0, 0, 0, 0, 0, 0, 0, 0, 0, 0, 0, 0, 0], [0, 0, 0, 0, 0, 0, 0, 0, 0, 0, 0, 0, 0, 0, 0, 0, 0, 0, 0, 0, 0, 0, 0, 0, 0, 0, 0, 0, 0, 0, 0, 0, 0, 0, 0, 0, 0, 0, 0, 0, 0, 0, 0, 0, 0, 0, 0, 0, 0, 0], [0, 0, 0, 0, 0, 0, 0, 0, 0, 0, 0, 0, 0, 0, 0, 0, 0, 0, 0, 0, 0, 0, 0, 0, 0, 0, 0, 0, 0, 0, 0, 0, 0, 0, 0, 0, 0, 0, 0, 0, 0, 0, 0, 0, 0, 0, 0, 0, 0, 0], [33, 49, 37, 32, 43, 38, 35, 41, 48, 34, 41, 44, 36, 41, 36, 43, 49, 48, 36, 43, 32, 50, 41, 49, 30, 45, 30, 38, 38, 36, 47, 39, 47, 48, 33, 40, 44, 47, 39, 30, 39, 30, 38, 48, 30, 45, 50, 36, 49, 35], [41, 48, 35, 36, 49, 33, 33, 37, 44, 45, 47, 50, 36, 42, 41, 48, 49, 30, 30, 49, 41, 41, 38, 32, 50, 38, 49, 33, 50, 40, 41, 30, 32, 48, 44, 43, 48, 48, 34, 36, 30, 30, 36, 38, 44, 46, 45, 31, 45, 39], [47, 35, 36, 39, 36, 35, 31, 35, 34, 38, 40, 40, 30, 46, 38, 37, 39, 42, 44, 39, 44, 37, 35, 42, 39, 46, 41, 44, 40, 38, 40, 46, 40, 46, 49, 50, 44, 40, 32, 41, 30, 31, 34, 41, 47, 47, 39, 34, 44, 34], [44, 36, 46, 31, 38, 34, 49, 33, 34, 32, 31, 49, 48, 38, 39, 38, 45, 30, 33, 49, 48, 37, 38, 45, 32, 35, 38, 50, 30, 30, 41, 40, 47, 33, 36, 48, 42, 41, 35, 31, 43, 39, 33, 30, 38, 50, 37, 35, 41, 37], [44, 30, 49, 47, 48, 34, 36, 37, 50, 47, 34, 41, 48, 40, 43, 31, 50, 49, 31, 38, 48, 40, 30, 44, 50, 49, 50, 40, 49, 34, 36, 40, 42, 47, 30, 43, 47, 45, 44, 44, 49, 47, 33, 38, 34, 35, 34, 47, 36, 44], [50, 43, 33, 44, 40, 48, 46, 48, 31, 45, 33, 33, 41, 49, 38, 32, 37, 40, 48, 46, 42, 48, 47, 37, 40, 32, 43, 36, 32, 35, 41, 36, 35, 42, 37, 31, 42, 34, 45, 47, 36, 39, 30, 34, 30, 42, 46, 44, 44, 44], [38, 37, 38, 30, 44, 39, 32, 43, 44, 41, 33, 36, 50, 43, 50, 41, 42, 47, 36, 49, 45, 31, 44, 44, 45, 42, 49, 35, 40, 49, 46, 39, 47, 47, 47, 35, 49, 46, 43, 42, 43, 50, 44, 30, 44, 50, 49, 34, 50, 41]], [[0, 0, 0, 0, 0, 0, 0, 0, 0, 0, 0, 0, 0, 0, 0, 0, 0, 0, 0, 0, 0, 0, 0, 0, 0, 0, 0, 0, 0, 0, 0, 0, 0, 0, 0, 0, 0, 0, 0, 0, 0, 0, 0, 0, 0, 0, 0, 0, 0, 0], [0, 0, 0, 0, 0, 0, 0, 0, 0, 0, 0, 0, 0, 0, 0, 0, 0, 0, 0, 0, 0, 0, 0, 0, 0, 0, 0, 0, 0, 0, 0, 0, 0, 0, 0, 0, 0, 0, 0, 0, 0, 0, 0, 0, 0, 0, 0, 0, 0, 0], [0, 0, 0, 0, 0, 0, 0, 0, 0, 0, 0, 0, 0, 0, 0, 0, 0, 0, 0, 0, 0, 0, 0, 0, 0, 0, 0, 0, 0, 0, 0, 0, 0, 0, 0, 0, 0, 0, 0, 0, 0, 0, 0, 0, 0, 0, 0, 0, 0, 0], [0, 0, 0, 0, 0, 0, 0, 0, 0, 0, 0, 0, 0, 0, 0, 0, 0, 0, 0, 0, 0, 0, 0, 0, 0, 0, 0, 0, 0, 0, 0, 0, 0, 0, 0, 0, 0, 0, 0, 0, 0, 0, 0, 0, 0, 0, 0, 0, 0, 0], [40, 43, 37, 30, 33, 33, 39, 37, 40, 36, 37, 40, 46, 42, 38, 34, 34, 30, 50, 41, 49, 42, 33, 40, 42, 31, 31, 45, 44, 34, 30, 48, 47, 50, 32, 31, 30, 46, 46, 46, 45, 36, 50, 31, 48, 31, 34, 44, 39, 48], [50, 47, 41, 45, 48, 40, 50, 46, 37, 33, 40, 35, 37, 35, 46, 36, 43, 41, 30, 49, 36, 44, 50, 42, 30, 33, 40, 49, 47, 43, 36, 30, 49, 33, 43, 46, 46, 41, 32, 37, 43, 42, 48, 35, 45, 31, 32, 44, 40, 44], [38, 35, 38, 35, 44, 45, 48, 45, 38, 39, 30, 46, 42, 46, 45, 47, 44, 34, 42, 50, 35, 41, 33, 31, 39, 47, 36, 44, 31, 38, 32, 37, 37, 40, 32, 40, 41, 36, 48, 40, 39, 45, 32, 38, 43, 33, 43, 40, 30, 47], [46, 37, 41, 37, 46, 32, 50, 41, 34, 47, 39, 34, 48, 30, 46, 44, 42, 38, 37, 33, 31, 42, 40, 34, 50, 31, 34, 44, 32, 34, 49, 37, 36, 36, 50, 34, 48, 41, 40, 39, 40, 32, 47, 30, 37, 33, 41, 37, 41, 41], [50, 38, 34, 49, 43, 33, 41, 36, 48, 37, 49, 44, 39, 32, 41, 30, 46, 35, 30, 33, 44, 39, 45, 49, 45, 43, 47, 45, 50, 34, 47, 50, 36, 46, 42, 41, 30, 39, 31, 38, 46, 36, 30, 47, 48, 38, 35, 35, 45, 37], [45, 44, 37, 34, 36, 32, 45, 31, 41, 37, 36, 41, 33, 43, 48, 50, 46, 46, 47, 47, 50, 40, 30, 31, 31, 43, 50, 43, 35, 39, 50, 43, 44, 49, 49, 36, 31, 50, 40, 39, 47, 41, 33, 49, 31, 35, 31, 35, 44, 36]], [[0, 0, 0, 0, 0, 0, 0, 0, 0, 0, 0, 0, 0, 0, 0, 0, 0, 0, 0, 0, 0, 0, 0, 0, 0, 0, 0, 0, 0, 0, 0, 0, 0, 0, 0, 0, 0, 0, 0, 0, 0, 0, 0, 0, 0, 0, 0, 0, 0, 0], [0, 0, 0, 0, 0, 0, 0, 0, 0, 0, 0, 0, 0, 0, 0, 0, 0, 0, 0, 0, 0, 0, 0, 0, 0, 0, 0, 0, 0, 0, 0, 0, 0, 0, 0, 0, 0, 0, 0, 0, 0, 0, 0, 0, 0, 0, 0, 0, 0, 0], [0, 0, 0, 0, 0, 0, 0, 0, 0, 0, 0, 0, 0, 0, 0, 0, 0, 0, 0, 0, 0, 0, 0, 0, 0, 0, 0, 0, 0, 0, 0, 0, 0, 0, 0, 0, 0, 0, 0, 0, 0, 0, 0, 0, 0, 0, 0, 0, 0, 0], [0, 0, 0, 0, 0, 0, 0, 0, 0, 0, 0, 0, 0, 0, 0, 0, 0, 0, 0, 0, 0, 0, 0, 0, 0, 0, 0, 0, 0, 0, 0, 0, 0, 0, 0, 0, 0, 0, 0, 0, 0, 0, 0, 0, 0, 0, 0, 0, 0, 0], [0, 0, 0, 0, 0, 0, 0, 0, 0, 0, 0, 0, 0, 0, 0, 0, 0, 0, 0, 0, 0, 0, 0, 0, 0, 0, 0, 0, 0, 0, 0, 0, 0, 0, 0, 0, 0, 0, 0, 0, 0, 0, 0, 0, 0, 0, 0, 0, 0, 0], [31, 34, 32, 41, 38, 39, 46, 32, 38, 30, 44, 32, 43, 30, 49, 35, 31, 35, 39, 46, 38, 33, 41, 30, 47, 36, 44, 34, 42, 41, 50, 40, 47, 36, 32, 48, 34, 39, 39, 38, 38, 42, 32, 43, 37, 46, 44, 30, 31, 49], [48, 36, 31, 47, 36, 34, 41, 38, 35, 34, 38, 33, 42, 46, 42, 49, 44, 39, 36, 40, 31, 38, 46, 33, 38, 37, 50, 34, 38, 35, 48, 36, 32, 48, 49, 34, 49, 39, 35, 40, 33, 30, 35, 36, 32, 40, 41, 38, 38, 44], [48, 33, 35, 35, 34, 41, 46, 38, 47, 34, 47, 35, 44, 34, 34, 31, 31, 35, 40, 32, 34, 44, 46, 47, 45, 45, 39, 44, 48, 34, 40, 35, 41, 41, 49, 50, 32, 33, 40, 42, 37, 48, 39, 38, 47, 38, 41, 37, 40, 36], [43, 40, 48, 31, 40, 30, 45, 32, 39, 39, 44, 40, 33, 31, 46, 38, 42, 31, 38, 32, 49, 48, 47, 40, 45, 32, 36, 33, 39, 43, 48, 49, 47, 48, 39, 50, 34, 39, 48, 38, 47, 35, 47, 47, 30, 35, 41, 37, 37, 40], [33, 43, 36, 39, 50, 40, 31, 50, 48, 32, 40, 44, 33, 31, 34, 40, 45, 38, 36, 50, 30, 48, 44, 35, 43, 38, 46, 38, 38, 34, 44, 41, 31, 35, 33, 41, 41, 38, 34, 36, 32, 50, 43, 50, 38, 38, 30, 43, 31, 33]], [[0, 0, 0, 0, 0, 0, 0, 0, 0, 0, 0, 0, 0, 0, 0, 0, 0, 0, 0, 0, 0, 0, 0, 0, 0, 0, 0, 0, 0, 0, 0, 0, 0, 0, 0, 0, 0, 0, 0, 0, 0, 0, 0, 0, 0, 0, 0, 0, 0, 0], [0, 0, 0, 0, 0, 0, 0, 0, 0, 0, 0, 0, 0, 0, 0, 0, 0, 0, 0, 0, 0, 0, 0, 0, 0, 0, 0, 0, 0, 0, 0, 0, 0, 0, 0, 0, 0, 0, 0, 0, 0, 0, 0, 0, 0, 0, 0, 0, 0, 0], [0, 0, 0, 0, 0, 0, 0, 0, 0, 0, 0, 0, 0, 0, 0, 0, 0, 0, 0, 0, 0, 0, 0, 0, 0, 0, 0, 0, 0, 0, 0, 0, 0, 0, 0, 0, 0, 0, 0, 0, 0, 0, 0, 0, 0, 0, 0, 0, 0, 0], [0, 0, 0, 0, 0, 0, 0, 0, 0, 0, 0, 0, 0, 0, 0, 0, 0, 0, 0, 0, 0, 0, 0, 0, 0, 0, 0, 0, 0, 0, 0, 0, 0, 0, 0, 0, 0, 0, 0, 0, 0, 0, 0, 0, 0, 0, 0, 0, 0, 0], [0, 0, 0, 0, 0, 0, 0, 0, 0, 0, 0, 0, 0, 0, 0, 0, 0, 0, 0, 0, 0, 0, 0, 0, 0, 0, 0, 0, 0, 0, 0, 0, 0, 0, 0, 0, 0, 0, 0, 0, 0, 0, 0, 0, 0, 0, 0, 0, 0, 0], [0, 0, 0, 0, 0, 0, 0, 0, 0, 0, 0, 0, 0, 0, 0, 0, 0, 0, 0, 0, 0, 0, 0, 0, 0, 0, 0, 0, 0, 0, 0, 0, 0, 0, 0, 0, 0, 0, 0, 0, 0, 0, 0, 0, 0, 0, 0, 0, 0, 0], [42, 50, 50, 34, 47, 50, 35, 45, 36, 35, 38, 45, 40, 45, 30, 44, 32, 45, 37, 44, 33, 31, 38, 50, 41, 31, 47, 31, 33, 36, 34, 47, 36, 34, 49, 50, 39, 47, 43, 31, 37, 36, 30, 43, 32, 35, 38, 42, 40, 39], [47, 37, 31, 48, 48, 39, 36, 50, 34, 33, 43, 40, 48, 36, 39, 44, 40, 36, 31, 40, 40, 34, 38, 50, 37, 41, 33, 30, 34, 49, 50, 31, 43, 48, 32, 38, 49, 46, 50, 39, 38, 35, 31, 48, 36, 33, 35, 39, 38, 35], [48, 49, 37, 36, 35, 45, 32, 47, 40, 46, 42, 41, 37, 49, 42, 39, 49, 35, 39, 48, 39, 49, 32, 49, 49, 33, 42, 43, 47, 44, 41, 40, 50, 38, 47, 50, 50, 31, 50, 39, 30, 35, 50, 31, 48, 35, 39, 50, 32, 47], [36, 43, 42, 41, 50, 40, 30, 34, 49, 37, 46, 47, 38, 33, 48, 42, 39, 34, 40, 49, 46, 49, 33, 32, 36, 33, 33, 40, 42, 37, 34, 33, 32, 39, 31, 41, 36, 45, 35, 44, 44, 31, 43, 49, 41, 42, 46, 35, 49, 36]], [[0, 0, 0, 0, 0, 0, 0, 0, 0, 0, 0, 0, 0, 0, 0, 0, 0, 0, 0, 0, 0, 0, 0, 0, 0, 0, 0, 0, 0, 0, 0, 0, 0, 0, 0, 0, 0, 0, 0, 0, 0, 0, 0, 0, 0, 0, 0, 0, 0, 0], [0, 0, 0, 0, 0, 0, 0, 0, 0, 0, 0, 0, 0, 0, 0, 0, 0, 0, 0, 0, 0, 0, 0, 0, 0, 0, 0, 0, 0, 0, 0, 0, 0, 0, 0, 0, 0, 0, 0, 0, 0, 0, 0, 0, 0, 0, 0, 0, 0, 0], [0, 0, 0, 0, 0, 0, 0, 0, 0, 0, 0, 0, 0, 0, 0, 0, 0, 0, 0, 0, 0, 0, 0, 0, 0, 0, 0, 0, 0, 0, 0, 0, 0, 0, 0, 0, 0, 0, 0, 0, 0, 0, 0, 0, 0, 0, 0, 0, 0, 0], [0, 0, 0, 0, 0, 0, 0, 0, 0, 0, 0, 0, 0, 0, 0, 0, 0, 0, 0, 0, 0, 0, 0, 0, 0, 0, 0, 0, 0, 0, 0, 0, 0, 0, 0, 0, 0, 0, 0, 0, 0, 0, 0, 0, 0, 0, 0, 0, 0, 0], [0, 0, 0, 0, 0, 0, 0, 0, 0, 0, 0, 0, 0, 0, 0, 0, 0, 0, 0, 0, 0, 0, 0, 0, 0, 0, 0, 0, 0, 0, 0, 0, 0, 0, 0, 0, 0, 0, 0, 0, 0, 0, 0, 0, 0, 0, 0, 0, 0, 0], [0, 0, 0, 0, 0, 0, 0, 0, 0, 0, 0, 0, 0, 0, 0, 0, 0, 0, 0, 0, 0, 0, 0, 0, 0, 0, 0, 0, 0, 0, 0, 0, 0, 0, 0, 0, 0, 0, 0, 0, 0, 0, 0, 0, 0, 0, 0, 0, 0, 0], [0, 0, 0, 0, 0, 0, 0, 0, 0, 0, 0, 0, 0, 0, 0, 0, 0, 0, 0, 0, 0, 0, 0, 0, 0, 0, 0, 0, 0, 0, 0, 0, 0, 0, 0, 0, 0, 0, 0, 0, 0, 0, 0, 0, 0, 0, 0, 0, 0, 0], [37, 32, 39, 34, 46, 45, 37, 46, 38, 44, 42, 49, 35, 43, 48, 46, 48, 49, 30, 32, 43, 39, 50, 43, 31, 44, 50, 31, 50, 35, 47, 42, 37, 34, 31, 39, 47, 50, 47, 35, 42, 42, 46, 40, 35, 41, 33, 44, 36, 47], [42, 48, 31, 48, 44, 36, 46, 43, 49, 35, 33, 49, 39, 35, 37, 34, 46, 45, 50, 32, 47, 47, 41, 30, 42, 45, 35, 31, 42, 37, 33, 43, 40, 45, 35, 43, 30, 33, 32, 41, 45, 43, 49, 31, 40, 45, 50, 43, 34, 40], [43, 44, 40, 40, 49, 32, 46, 42, 49, 44, 35, 42, 37, 45, 49, 35, 45, 36, 49, 44, 46, 30, 44, 38, 37, 49, 42, 37, 40, 44, 46, 34, 50, 35, 46, 39, 34, 41, 40, 37, 50, 43, 41, 37, 43, 32, 43, 39, 40, 37]], [[0, 0, 0, 0, 0, 0, 0, 0, 0, 0, 0, 0, 0, 0, 0, 0, 0, 0, 0, 0, 0, 0, 0, 0, 0, 0, 0, 0, 0, 0, 0, 0, 0, 0, 0, 0, 0, 0, 0, 0, 0, 0, 0, 0, 0, 0, 0, 0, 0, 0], [0, 0, 0, 0, 0, 0, 0, 0, 0, 0, 0, 0, 0, 0, 0, 0, 0, 0, 0, 0, 0, 0, 0, 0, 0, 0, 0, 0, 0, 0, 0, 0, 0, 0, 0, 0, 0, 0, 0, 0, 0, 0, 0, 0, 0, 0, 0, 0, 0, 0], [0, 0, 0, 0, 0, 0, 0, 0, 0, 0, 0, 0, 0, 0, 0, 0, 0, 0, 0, 0, 0, 0, 0, 0, 0, 0, 0, 0, 0, 0, 0, 0, 0, 0, 0, 0, 0, 0, 0, 0, 0, 0, 0, 0, 0, 0, 0, 0, 0, 0], [0, 0, 0, 0, 0, 0, 0, 0, 0, 0, 0, 0, 0, 0, 0, 0, 0, 0, 0, 0, 0, 0, 0, 0, 0, 0, 0, 0, 0, 0, 0, 0, 0, 0, 0, 0, 0, 0, 0, 0, 0, 0, 0, 0, 0, 0, 0, 0, 0, 0], [0, 0, 0, 0, 0, 0, 0, 0, 0, 0, 0, 0, 0, 0, 0, 0, 0, 0, 0, 0, 0, 0, 0, 0, 0, 0, 0, 0, 0, 0, 0, 0, 0, 0, 0, 0, 0, 0, 0, 0, 0, 0, 0, 0, 0, 0, 0, 0, 0, 0], [0, 0, 0, 0, 0, 0, 0, 0, 0, 0, 0, 0, 0, 0, 0, 0, 0, 0, 0, 0, 0, 0, 0, 0, 0, 0, 0, 0, 0, 0, 0, 0, 0, 0, 0, 0, 0, 0, 0, 0, 0, 0, 0, 0, 0, 0, 0, 0, 0, 0], [0, 0, 0, 0, 0, 0, 0, 0, 0, 0, 0, 0, 0, 0, 0, 0, 0, 0, 0, 0, 0, 0, 0, 0, 0, 0, 0, 0, 0, 0, 0, 0, 0, 0, 0, 0, 0, 0, 0, 0, 0, 0, 0, 0, 0, 0, 0, 0, 0, 0], [0, 0, 0, 0, 0, 0, 0, 0, 0, 0, 0, 0, 0, 0, 0, 0, 0, 0, 0, 0, 0, 0, 0, 0, 0, 0, 0, 0, 0, 0, 0, 0, 0, 0, 0, 0, 0, 0, 0, 0, 0, 0, 0, 0, 0, 0, 0, 0, 0, 0], [36, 34, 40, 32, 41, 43, 46, 34, 32, 36, 42, 41, 35, 40, 42, 42, 32, 36, 47, 32, 34, 50, 41, 41, 36, 42, 49, 33, 36, 33, 47, 50, 36, 32, 43, 39, 30, 47, 42, 50, 48, 40, 47, 41, 49, 38, 46, 42, 35, 31], [45, 50, 39, 32, 50, 47, 50, 47, 49, 40, 35, 39, 35, 47, 37, 47, 41, 47, 35, 32, 33, 37, 36, 49, 37, 33, 45, 36, 47, 31, 46, 37, 45, 38, 33, 38, 50, 32, 32, 44, 40, 38, 32, 33, 43, 44, 41, 30, 33, 40]], [[0, 0, 0, 0, 0, 0, 0, 0, 0, 0, 0, 0, 0, 0, 0, 0, 0, 0, 0, 0, 0, 0, 0, 0, 0, 0, 0, 0, 0, 0, 0, 0, 0, 0, 0, 0, 0, 0, 0, 0, 0, 0, 0, 0, 0, 0, 0, 0, 0, 0], [0, 0, 0, 0, 0, 0, 0, 0, 0, 0, 0, 0, 0, 0, 0, 0, 0, 0, 0, 0, 0, 0, 0, 0, 0, 0, 0, 0, 0, 0, 0, 0, 0, 0, 0, 0, 0, 0, 0, 0, 0, 0, 0, 0, 0, 0, 0, 0, 0, 0], [0, 0, 0, 0, 0, 0, 0, 0, 0, 0, 0, 0, 0, 0, 0, 0, 0, 0, 0, 0, 0, 0, 0, 0, 0, 0, 0, 0, 0, 0, 0, 0, 0, 0, 0, 0, 0, 0, 0, 0, 0, 0, 0, 0, 0, 0, 0, 0, 0, 0], [0, 0, 0, 0, 0, 0, 0, 0, 0, 0, 0, 0, 0, 0, 0, 0, 0, 0, 0, 0, 0, 0, 0, 0, 0, 0, 0, 0, 0, 0, 0, 0, 0, 0, 0, 0, 0, 0, 0, 0, 0, 0, 0, 0, 0, 0, 0, 0, 0, 0], [0, 0, 0, 0, 0, 0, 0, 0, 0, 0, 0, 0, 0, 0, 0, 0, 0, 0, 0, 0, 0, 0, 0, 0, 0, 0, 0, 0, 0, 0, 0, 0, 0, 0, 0, 0, 0, 0, 0, 0, 0, 0, 0, 0, 0, 0, 0, 0, 0, 0], [0, 0, 0, 0, 0, 0, 0, 0, 0, 0, 0, 0, 0, 0, 0, 0, 0, 0, 0, 0, 0, 0, 0, 0, 0, 0, 0, 0, 0, 0, 0, 0, 0, 0, 0, 0, 0, 0, 0, 0, 0, 0, 0, 0, 0, 0, 0, 0, 0, 0], [0, 0, 0, 0, 0, 0, 0, 0, 0, 0, 0, 0, 0, 0, 0, 0, 0, 0, 0, 0, 0, 0, 0, 0, 0, 0, 0, 0, 0, 0, 0, 0, 0, 0, 0, 0, 0, 0, 0, 0, 0, 0, 0, 0, 0, 0, 0, 0, 0, 0], [0, 0, 0, 0, 0, 0, 0, 0, 0, 0, 0, 0, 0, 0, 0, 0, 0, 0, 0, 0, 0, 0, 0, 0, 0, 0, 0, 0, 0, 0, 0, 0, 0, 0, 0, 0, 0, 0, 0, 0, 0, 0, 0, 0, 0, 0, 0, 0, 0, 0], [0, 0, 0, 0, 0, 0, 0, 0, 0, 0, 0, 0, 0, 0, 0, 0, 0, 0, 0, 0, 0, 0, 0, 0, 0, 0, 0, 0, 0, 0, 0, 0, 0, 0, 0, 0, 0, 0, 0, 0, 0, 0, 0, 0, 0, 0, 0, 0, 0, 0], [38, 49, 31, 36, 49, 37, 36, 38, 35, 44, 32, 36, 49, 42, 30, 30, 38, 41, 43, 34, 49, 35, 40, 30, 30, 30, 38, 41, 36, 39, 46, 48, 45, 50, 41, 32, 38, 37, 43, 48, 36, 35, 47, 40, 44, 38, 40, 34, 34, 43]], [[0, 0, 0, 0, 0, 0, 0, 0, 0, 0, 0, 0, 0, 0, 0, 0, 0, 0, 0, 0, 0, 0, 0, 0, 0, 0, 0, 0, 0, 0, 0, 0, 0, 0, 0, 0, 0, 0, 0, 0, 0, 0, 0, 0, 0, 0, 0, 0, 0, 0], [0, 0, 0, 0, 0, 0, 0, 0, 0, 0, 0, 0, 0, 0, 0, 0, 0, 0, 0, 0, 0, 0, 0, 0, 0, 0, 0, 0, 0, 0, 0, 0, 0, 0, 0, 0, 0, 0, 0, 0, 0, 0, 0, 0, 0, 0, 0, 0, 0, 0], [0, 0, 0, 0, 0, 0, 0, 0, 0, 0, 0, 0, 0, 0, 0, 0, 0, 0, 0, 0, 0, 0, 0, 0, 0, 0, 0, 0, 0, 0, 0, 0, 0, 0, 0, 0, 0, 0, 0, 0, 0, 0, 0, 0, 0, 0, 0, 0, 0, 0], [0, 0, 0, 0, 0, 0, 0, 0, 0, 0, 0, 0, 0, 0, 0, 0, 0, 0, 0, 0, 0, 0, 0, 0, 0, 0, 0, 0, 0, 0, 0, 0, 0, 0, 0, 0, 0, 0, 0, 0, 0, 0, 0, 0, 0, 0, 0, 0, 0, 0], [0, 0, 0, 0, 0, 0, 0, 0, 0, 0, 0, 0, 0, 0, 0, 0, 0, 0, 0, 0, 0, 0, 0, 0, 0, 0, 0, 0, 0, 0, 0, 0, 0, 0, 0, 0, 0, 0, 0, 0, 0, 0, 0, 0, 0, 0, 0, 0, 0, 0], [0, 0, 0, 0, 0, 0, 0, 0, 0, 0, 0, 0, 0, 0, 0, 0, 0, 0, 0, 0, 0, 0, 0, 0, 0, 0, 0, 0, 0, 0, 0, 0, 0, 0, 0, 0, 0, 0, 0, 0, 0, 0, 0, 0, 0, 0, 0, 0, 0, 0], [0, 0, 0, 0, 0, 0, 0, 0, 0, 0, 0, 0, 0, 0, 0, 0, 0, 0, 0, 0, 0, 0, 0, 0, 0, 0, 0, 0, 0, 0, 0, 0, 0, 0, 0, 0, 0, 0, 0, 0, 0, 0, 0, 0, 0, 0, 0, 0, 0, 0], [0, 0, 0, 0, 0, 0, 0, 0, 0, 0, 0, 0, 0, 0, 0, 0, 0, 0, 0, 0, 0, 0, 0, 0, 0, 0, 0, 0, 0, 0, 0, 0, 0, 0, 0, 0, 0, 0, 0, 0, 0, 0, 0, 0, 0, 0, 0, 0, 0, 0], [0, 0, 0, 0, 0, 0, 0, 0, 0, 0, 0, 0, 0, 0, 0, 0, 0, 0, 0, 0, 0, 0, 0, 0, 0, 0, 0, 0, 0, 0, 0, 0, 0, 0, 0, 0, 0, 0, 0, 0, 0, 0, 0, 0, 0, 0, 0, 0, 0, 0], [0, 0, 0, 0, 0, 0, 0, 0, 0, 0, 0, 0, 0, 0, 0, 0, 0, 0, 0, 0, 0, 0, 0, 0, 0, 0, 0, 0, 0, 0, 0, 0, 0, 0, 0, 0, 0, 0, 0, 0, 0, 0, 0, 0, 0, 0, 0, 0, 0, 0]]];

q = [[[17, 121], [7, 124], [7, 113], [24, 112], [12, 120], [13, 125], [6, 123], [11, 107], [6, 112], [17, 113], [12, 119], [8, 120], [16, 118], [24, 123], [24, 110], [12, 120], [19, 112], [16, 108], [15, 108], [23, 122], [17, 115], [9, 123], [9, 108], [7, 124], [14, 123], [15, 106], [20, 122], [11, 106], [18, 115], [19, 108], [14, 108], [18, 105], [20, 114], [15, 110], [13, 106], [14, 111], [6, 112], [18, 124], [12, 115], [8, 107], [20, 123], [10, 125], [7, 122], [7, 120], [10, 116], [25, 117], [20, 113], [14, 106], [9, 107], [17, 119]], [[10, 114], [15, 123], [13, 107], [21, 110], [22, 114], [13, 109], [15, 114], [7, 118], [20, 112], [13, 122], [16, 107], [24, 111], [25, 112], [7, 111], [12, 118], [19, 123], [24, 123], [6, 115], [15, 119], [6, 116], [23, 113], [21, 108], [5, 125], [21, 121], [21, 116], [11, 120], [15, 106], [11, 115], [23, 123], [10, 125], [23, 121], [19, 109], [18, 110], [14, 122], [14, 112], [5, 124], [23, 123], [24, 111], [21, 105], [21, 122], [5, 115], [14, 120], [20, 107], [20, 123], [6, 106], [9, 115], [15, 110], [23, 124], [16, 107], [10, 122]], [[19, 105], [8, 109], [9, 121], [19, 117], [15, 117], [19, 113], [12, 116], [8, 124], [19, 117], [6, 107], [23, 122], [25, 106], [22, 114], [13, 105], [21, 114], [7, 106], [24, 115], [10, 118], [11, 120], [17, 107], [9, 119], [20, 115], [25, 121], [20, 121], [15, 120], [21, 114], [10, 109], [23, 108], [24, 116], [6, 124], [6, 124], [6, 124], [22, 114], [17, 106], [9, 105], [11, 111], [9, 111], [18, 117], [8, 113], [8, 113], [15, 123], [24, 113], [18, 115], [7, 123], [9, 117], [5, 107], [18, 107], [5, 119], [7, 116], [20, 121]], [[19, 125], [10, 125], [7, 118], [8, 121], [22, 114], [5, 119], [16, 117], [23, 123], [9, 123], [17, 121], [25, 112], [17, 119], [7, 124], [23, 106], [17, 112], [16, 105], [20, 117], [11, 111], [22, 106], [20, 117], [16, 125], [15, 121], [15, 119], [14, 123], [19, 108], [10, 112], [19, 121], [11, 114], [24, 118], [10, 118], [15, 119], [21, 114], [22, 106], [24, 120], [8, 107], [12, 119], [15, 121], [18, 125], [18, 123], [21, 117], [5, 105], [13, 119], [20, 120], [7, 112], [10, 114], [18, 105], [10, 113], [25, 124], [18, 119], [25, 111]], [[17, 118], [14, 113], [13, 114], [19, 121], [24, 117], [22, 121], [11, 109], [23, 108], [22, 105], [24, 119], [20, 115], [18, 109], [13, 113], [7, 121], [18, 109], [5, 114], [24, 123], [15, 109], [8, 106], [19, 108], [23, 105], [15, 115], [20, 115], [5, 111], [11, 124], [11, 118], [12, 112], [7, 125], [15, 123], [16, 116], [21, 109], [15, 112], [11, 113], [22, 105], [19, 120], [7, 118], [14, 119], [14, 111], [20, 106], [6, 105], [11, 108], [19, 112], [16, 123], [14, 125], [11, 113], [9, 124], [25, 117], [11, 125], [15, 116], [6, 108]], [[13, 120], [18, 121], [16, 122], [20, 112], [8, 108], [21, 113], [5, 114], [21, 109], [9, 125], [18, 122], [7, 116], [21, 109], [24, 107], [16, 111], [23, 109], [25, 110], [15, 109], [22, 124], [23, 113], [8, 121], [5, 115], [14, 110], [19, 116], [16, 108], [23, 120], [18, 123], [6, 120], [14, 116], [15, 120], [7, 107], [5, 113], [21, 122], [23, 115], [15, 120], [12, 108], [21, 120], [13, 112], [7, 113], [20, 124], [10, 110], [18, 114], [19, 105], [19, 111], [18, 114], [23, 123], [5, 115], [11, 115], [13, 124], [18, 111], [14, 113]], [[13, 108], [11, 124], [9, 119], [6, 121], [9, 107], [14, 105], [10, 119], [21, 108], [9, 117], [9, 118], [18, 121], [22, 111], [11, 107], [13, 124], [18, 123], [7, 119], [11, 114], [17, 118], [6, 112], [15, 119], [21, 117], [5, 125], [10, 105], [16, 122], [22, 116], [18, 105], [13, 117], [13, 125], [5, 125], [16, 116], [11, 119], [8, 120], [17, 120], [12, 110], [5, 112], [9, 112], [12, 111], [11, 121], [22, 107], [12, 106], [8, 123], [23, 105], [19, 108], [7, 120], [11, 124], [12, 121], [19, 111], [24, 114], [8, 117], [18, 107]], [[15, 125], [21, 110], [9, 123], [8, 107], [15, 110], [8, 121], [10, 109], [17, 111], [19, 117], [22, 116], [25, 116], [14, 116], [7, 113], [11, 110], [21, 116], [13, 114], [25, 111], [18, 110], [13, 106], [24, 124], [5, 117], [6, 111], [12, 108], [7, 111], [8, 115], [9, 119], [13, 108], [15, 118], [22, 114], [18, 110], [11, 120], [8, 116], [24, 109], [7, 109], [7, 110], [20, 119], [6, 115], [22, 124], [21, 124], [14, 111], [9, 117], [11, 105], [17, 124], [12, 123], [9, 111], [8, 112], [5, 105], [10, 118], [15, 110], [12, 113]], [[20, 114], [8, 114], [9, 118], [13, 123], [18, 109], [16, 109], [25, 124], [9, 108], [16, 107], [7, 120], [10, 116], [20, 107], [23, 106], [24, 118], [13, 108], [20, 106], [16, 121], [18, 112], [18, 110], [15, 107], [18, 123], [9, 115], [19, 118], [15, 110], [19, 124], [6, 112], [14, 115], [7, 125], [25, 107], [12, 110], [20, 112], [15, 110], [17, 108], [15, 120], [24, 116], [9, 122], [24, 108], [7, 117], [12, 125], [24, 118], [6, 108], [22, 118], [20, 112], [23, 122], [19, 124], [15, 119], [20, 119], [11, 117], [14, 117], [21, 125]], [[5, 119], [16, 111], [7, 122], [6, 115], [13, 124], [24, 119], [16, 112], [17, 112], [9, 119], [15, 110], [8, 118], [17, 120], [20, 113], [18, 111], [9, 113], [16, 107], [21, 120], [24, 120], [14, 112], [22, 123], [23, 119], [19, 117], [9, 110], [11, 115], [11, 120], [5, 123], [8, 119], [24, 113], [12, 116], [22, 117], [20, 106], [23, 123], [14, 117], [19, 124], [5, 125], [14, 115], [7, 111], [23, 119], [12, 105], [22, 107], [9, 113], [19, 111], [8, 124], [21, 112], [13, 125], [18, 120], [19, 121], [6, 114], [6, 111], [21, 107]]];
Q = [[67, 461], [70, 463], [77, 460], [74, 467], [71, 458], [56, 461], [62, 462], [57, 457], [63, 461], [60, 464]];
